(set-info :source |printed by MathSAT|)
(declare-fun |.x{1340}| () Int)
(declare-fun |.x{1394}| () Int)
(declare-fun |.x{1341}| () (Array Int Int))
(declare-fun |.x{1395}| () (Array Int Int))
(declare-fun |.x{1342}| () (Array Int Int))
(declare-fun |.x{1396}| () (Array Int Int))
(declare-fun |.x{1343}| () (Array Int (Array Int Int)))
(declare-fun |.x{1397}| () (Array Int (Array Int Int)))
(declare-fun |.x{1344}| () Int)
(declare-fun |.x{1398}| () Int)
(declare-fun |.x{1345}| () Int)
(declare-fun |.x{1399}| () Int)
(declare-fun |.x{1346}| () (Array Int Int))
(declare-fun |.x{1400}| () (Array Int Int))
(declare-fun |.x{1347}| () (Array Int Int))
(declare-fun |.x{1401}| () (Array Int Int))
(declare-fun |.x{1348}| () Int)
(declare-fun |.x{1402}| () Int)
(declare-fun |.x{1349}| () Int)
(declare-fun |.x{1403}| () Int)
(declare-fun |.x{1350}| () Int)
(declare-fun |.x{1404}| () Int)
(declare-fun |.x{1351}| () Int)
(declare-fun |.x{1405}| () Int)
(declare-fun |.x{1352}| () Int)
(declare-fun |.x{1406}| () Int)
(declare-fun |.x{1353}| () Int)
(declare-fun |.x{1407}| () Int)
(declare-fun |.x{1354}| () Int)
(declare-fun |.x{1408}| () Int)
(declare-fun |.x{1355}| () Int)
(declare-fun |.x{1409}| () Int)
(declare-fun |.x{1356}| () Int)
(declare-fun |.x{1410}| () Int)
(declare-fun |.x{1357}| () Int)
(declare-fun |.x{1411}| () Int)
(declare-fun |.x{1358}| () Int)
(declare-fun |.x{1412}| () Int)
(declare-fun |.x{1359}| () Int)
(declare-fun |.x{1413}| () Int)
(declare-fun |.x{1360}| () Int)
(declare-fun |.x{1414}| () Int)
(declare-fun |.x{1361}| () Int)
(declare-fun |.x{1415}| () Int)
(declare-fun |.x{1362}| () Int)
(declare-fun |.x{1416}| () Int)
(declare-fun |.x{1363}| () Int)
(declare-fun |.x{1417}| () Int)
(declare-fun |.x{1364}| () Int)
(declare-fun |.x{1418}| () Int)
(declare-fun |.x{1365}| () Int)
(declare-fun |.x{1419}| () Int)
(declare-fun |.x{1393}| () Bool)
(declare-fun |.x{1366}| () Bool)
(declare-fun |.loc{5}| () Bool)
(declare-fun |.loc{9}| () Bool)
(declare-fun |.loc{6}| () Bool)
(declare-fun |.loc{10}| () Bool)
(declare-fun |.loc{7}| () Bool)
(declare-fun |.loc{11}| () Bool)
(declare-fun |.loc{8}| () Bool)
(declare-fun |.loc{12}| () Bool)
(declare-fun |.x{594}| () Int)
(declare-fun |.x{593}| () Int)
(declare-fun |.x{107}| () (Array Int Int))
(define-fun .def_64 () Bool (! |.loc{6}| :next |.loc{10}|))
(define-fun .def_227 () Bool (not .def_64))
(define-fun .def_62 () Bool (! |.loc{5}| :next |.loc{9}|))
(define-fun .def_132 () Bool (not .def_62))
(define-fun .def_529 () Bool (and .def_132 .def_227))
(define-fun .def_66 () Bool (! |.loc{7}| :next |.loc{11}|))
(define-fun .def_130 () Bool (not .def_66))
(define-fun .def_530 () Bool (and .def_130 .def_529))
(define-fun .def_68 () Bool (! |.loc{8}| :next |.loc{12}|))
(define-fun .def_91 () Bool (not .def_68))
(define-fun .def_531 () Bool (and .def_91 .def_530))
(define-fun .def_18 () Int (! |.x{1345}| :next |.x{1399}|))
(define-fun .def_16 () Int (! |.x{1344}| :next |.x{1398}|))
(define-fun .def_524 () Bool (= .def_16 .def_18))
(define-fun .def_26 () Int (! |.x{1349}| :next |.x{1403}|))
(define-fun .def_24 () Int (! |.x{1348}| :next |.x{1402}|))
(define-fun .def_523 () Bool (= .def_24 .def_26))
(define-fun .def_525 () Bool (and .def_523 .def_524))
(define-fun .def_22 () (Array Int Int) (! |.x{1347}| :next |.x{1401}|))
(define-fun .def_20 () (Array Int Int) (! |.x{1346}| :next |.x{1400}|))
(define-fun .def_522 () Bool (= .def_20 .def_22))
(define-fun .def_526 () Bool (and .def_522 .def_525))
(define-fun .def_12 () (Array Int Int) (! |.x{1342}| :next |.x{1396}|))
(define-fun .def_10 () (Array Int Int) (! |.x{1341}| :next |.x{1395}|))
(define-fun .def_521 () Bool (= .def_10 .def_12))
(define-fun .def_527 () Bool (and .def_521 .def_526))
(define-fun .def_60 () Bool (! |.x{1393}| :next |.x{1366}|))
(define-fun .def_520 () Bool (not .def_60))
(define-fun .def_528 () Bool (and .def_520 .def_527))
(define-fun .def_532 () Bool (! (and .def_528 .def_531) :init true))
(define-fun .def_517 () Bool (= .def_26 |.x{1403}|))
(define-fun .def_515 () Bool (= .def_22 |.x{1401}|))
(define-fun .def_513 () Bool (= .def_18 |.x{1399}|))
(define-fun .def_14 () (Array Int (Array Int Int)) (! |.x{1343}| :next |.x{1397}|))
(define-fun .def_511 () Bool (= .def_14 |.x{1397}|))
(define-fun .def_8 () Int (! |.x{1340}| :next |.x{1394}|))
(define-fun .def_509 () Bool (= .def_8 |.x{1394}|))
(define-fun .def_508 () Bool (= .def_12 |.x{1396}|))
(define-fun .def_510 () Bool (and .def_508 .def_509))
(define-fun .def_512 () Bool (and .def_510 .def_511))
(define-fun .def_514 () Bool (and .def_512 .def_513))
(define-fun .def_516 () Bool (and .def_514 .def_515))
(define-fun .def_518 () Bool (and .def_516 .def_517))
(define-fun .def_46 () Int (! |.x{1359}| :next |.x{1413}|))
(define-fun .def_498 () Bool (= .def_46 |.x{1413}|))
(define-fun .def_48 () Int (! |.x{1360}| :next |.x{1414}|))
(define-fun .def_497 () Bool (= .def_48 |.x{1414}|))
(define-fun .def_499 () Bool (and .def_497 .def_498))
(define-fun .def_54 () Int (! |.x{1363}| :next |.x{1417}|))
(define-fun .def_82 () Bool (= .def_54 |.x{1417}|))
(define-fun .def_50 () Int (! |.x{1361}| :next |.x{1415}|))
(define-fun .def_77 () Bool (= .def_50 |.x{1415}|))
(define-fun .def_42 () Int (! |.x{1357}| :next |.x{1411}|))
(define-fun .def_75 () Bool (= .def_42 |.x{1411}|))
(define-fun .def_44 () Int (! |.x{1358}| :next |.x{1412}|))
(define-fun .def_74 () Bool (= .def_44 |.x{1412}|))
(define-fun .def_76 () Bool (and .def_74 .def_75))
(define-fun .def_78 () Bool (and .def_76 .def_77))
(define-fun .def_470 () Bool (and .def_78 .def_82))
(define-fun .def_88 () Bool (= .def_10 |.x{1395}|))
(define-fun .def_471 () Bool (and .def_88 .def_470))
(define-fun .def_472 () Bool (and .def_62 .def_471))
(define-fun .def_473 () Bool (and .def_64 .def_472))
(define-fun .def_474 () Bool (and .def_66 .def_473))
(define-fun .def_475 () Bool (and .def_91 .def_474))
(define-fun .def_476 () Bool (and |.x{1366}| .def_475))
(define-fun .def_28 () Int (! |.x{1350}| :next |.x{1404}|))
(define-fun .def_122 () Bool (= .def_28 |.x{1404}|))
(define-fun .def_477 () Bool (and .def_122 .def_476))
(define-fun .def_38 () Int (! |.x{1355}| :next |.x{1409}|))
(define-fun .def_136 () Bool (= .def_38 |.x{1409}|))
(define-fun .def_478 () Bool (and .def_136 .def_477))
(define-fun .def_466 () Bool (= |.x{1409}| |.x{1412}|))
(define-fun .def_467 () Bool (or |.x{1366}| .def_466))
(define-fun .def_457 () (Array Int Int) (store .def_10 .def_42 0))
(define-fun .def_458 () (Array Int Int) (store .def_457 .def_50 0))
(define-fun .def_459 () Bool (= |.x{1395}| .def_458))
(define-fun .def_456 () Bool (= |.x{1412}| 0))
(define-fun .def_460 () Bool (and .def_456 .def_459))
(define-fun .def_461 () Bool (or .def_60 .def_460))
(define-fun .def_462 () Bool (and .def_68 .def_461))
(define-fun .def_463 () Bool (and .def_130 .def_462))
(define-fun .def_464 () Bool (and .def_227 .def_463))
(define-fun .def_465 () Bool (and .def_132 .def_464))
(define-fun .def_468 () Bool (and .def_465 .def_467))
(define-fun .def_140 () Bool (= .def_60 |.x{1366}|))
(define-fun .def_469 () Bool (and .def_140 .def_468))
(define-fun .def_479 () Bool (or .def_469 .def_478))
(define-fun .def_114 () Bool (not |.loc{10}|))
(define-fun .def_454 () Bool (and |.loc{12}| .def_114))
(define-fun .def_118 () Bool (not |.loc{11}|))
(define-fun .def_455 () Bool (and .def_118 .def_454))
(define-fun .def_480 () Bool (and .def_455 .def_479))
(define-fun .def_30 () Int (! |.x{1351}| :next |.x{1405}|))
(define-fun .def_251 () Bool (= .def_30 0))
(define-fun .def_439 () Bool (or .def_60 .def_251))
(define-fun .def_440 () Bool (and .def_76 .def_439))
(define-fun .def_441 () Bool (and .def_77 .def_440))
(define-fun .def_442 () Bool (and .def_82 .def_441))
(define-fun .def_443 () Bool (and .def_88 .def_442))
(define-fun .def_444 () Bool (and .def_64 .def_443))
(define-fun .def_445 () Bool (and .def_66 .def_444))
(define-fun .def_446 () Bool (and .def_91 .def_445))
(define-fun .def_447 () Bool (and |.loc{10}| .def_446))
(define-fun .def_448 () Bool (and |.loc{11}| .def_447))
(define-fun .def_449 () Bool (and .def_122 .def_448))
(define-fun .def_450 () Bool (and .def_132 .def_449))
(define-fun .def_451 () Bool (and .def_136 .def_450))
(define-fun .def_138 () Bool (not |.loc{12}|))
(define-fun .def_452 () Bool (and .def_138 .def_451))
(define-fun .def_453 () Bool (and .def_140 .def_452))
(define-fun .def_481 () Bool (or .def_453 .def_480))
(define-fun .def_56 () Int (! |.x{1364}| :next |.x{1418}|))
(define-fun .def_84 () Bool (= .def_56 |.x{1418}|))
(define-fun .def_52 () Int (! |.x{1362}| :next |.x{1416}|))
(define-fun .def_80 () Bool (= .def_52 |.x{1416}|))
(define-fun .def_435 () Bool (and .def_80 .def_84))
(define-fun .def_58 () Int (! |.x{1365}| :next |.x{1419}|))
(define-fun .def_86 () Bool (= .def_58 |.x{1419}|))
(define-fun .def_436 () Bool (and .def_86 .def_435))
(define-fun .def_437 () Bool (and |.loc{9}| .def_436))
(define-fun .def_124 () Bool (= .def_30 |.x{1405}|))
(define-fun .def_438 () Bool (and .def_124 .def_437))
(define-fun .def_482 () Bool (and .def_438 .def_481))
(define-fun .def_413 () Bool (= |.x{1418}| |.x{1419}|))
(define-fun .def_414 () Int (ite .def_413 1 0))
(define-fun .def_415 () Bool (= |.x{1416}| .def_414))
(define-fun .def_412 () Bool (= |.x{1405}| |.x{1416}|))
(define-fun .def_416 () Bool (and .def_412 .def_415))
(define-fun .def_36 () Int (! |.x{1354}| :next |.x{1408}|))
(define-fun .def_332 () Bool (<= 100000 .def_36))
(define-fun .def_411 () Bool (not .def_332))
(define-fun .def_417 () Bool (and .def_411 .def_416))
(define-fun .def_403 () Int (* 4 .def_36))
(define-fun .def_408 () Int (+ .def_28 .def_403))
(define-fun .def_107 () (Array Int Int) (select .def_14 .def_42))
(define-fun .def_409 () Int (select .def_107 .def_408))
(define-fun .def_410 () Bool (= |.x{1419}| .def_409))
(define-fun .def_418 () Bool (and .def_410 .def_417))
(define-fun .def_405 () Int (+ .def_403 .def_54))
(define-fun .def_101 () (Array Int Int) (select .def_14 .def_50))
(define-fun .def_406 () Int (select .def_101 .def_405))
(define-fun .def_407 () Bool (= |.x{1418}| .def_406))
(define-fun .def_419 () Bool (and .def_407 .def_418))
(define-fun .def_420 () Bool (or .def_60 .def_419))
(define-fun .def_421 () Bool (and .def_78 .def_420))
(define-fun .def_422 () Bool (and .def_82 .def_421))
(define-fun .def_423 () Bool (and .def_62 .def_422))
(define-fun .def_424 () Bool (and .def_88 .def_423))
(define-fun .def_425 () Bool (and .def_66 .def_424))
(define-fun .def_426 () Bool (and .def_91 .def_425))
(define-fun .def_427 () Bool (and |.loc{10}| .def_426))
(define-fun .def_428 () Bool (and |.loc{11}| .def_427))
(define-fun .def_429 () Bool (and .def_122 .def_428))
(define-fun .def_224 () Bool (not |.loc{9}|))
(define-fun .def_430 () Bool (and .def_224 .def_429))
(define-fun .def_431 () Bool (and .def_227 .def_430))
(define-fun .def_432 () Bool (and .def_136 .def_431))
(define-fun .def_433 () Bool (and .def_138 .def_432))
(define-fun .def_434 () Bool (and .def_140 .def_433))
(define-fun .def_483 () Bool (or .def_434 .def_482))
(define-fun .def_32 () Int (! |.x{1352}| :next |.x{1406}|))
(define-fun .def_126 () Bool (= .def_32 |.x{1406}|))
(define-fun .def_484 () Bool (and .def_126 .def_483))
(define-fun .def_134 () Bool (= .def_36 |.x{1408}|))
(define-fun .def_485 () Bool (and .def_134 .def_484))
(define-fun .def_382 () Int (* (- 1) |.x{1408}|))
(define-fun .def_383 () Int (+ .def_36 .def_382))
(define-fun .def_384 () Bool (= .def_383 (- 1)))
(define-fun .def_385 () Bool (or |.x{1366}| .def_384))
(define-fun .def_386 () Bool (and .def_76 .def_385))
(define-fun .def_387 () Bool (and .def_77 .def_386))
(define-fun .def_388 () Bool (and .def_80 .def_387))
(define-fun .def_389 () Bool (and .def_82 .def_388))
(define-fun .def_390 () Bool (and .def_88 .def_389))
(define-fun .def_391 () Bool (and .def_66 .def_390))
(define-fun .def_392 () Bool (and .def_91 .def_391))
(define-fun .def_393 () Bool (and |.loc{9}| .def_392))
(define-fun .def_394 () Bool (and |.loc{11}| .def_393))
(define-fun .def_395 () Bool (and .def_114 .def_394))
(define-fun .def_396 () Bool (and .def_122 .def_395))
(define-fun .def_397 () Bool (and .def_124 .def_396))
(define-fun .def_398 () Bool (and .def_227 .def_397))
(define-fun .def_399 () Bool (and .def_132 .def_398))
(define-fun .def_400 () Bool (and .def_136 .def_399))
(define-fun .def_401 () Bool (and .def_138 .def_400))
(define-fun .def_402 () Bool (and .def_140 .def_401))
(define-fun .def_486 () Bool (or .def_402 .def_485))
(define-fun .def_375 () Bool (= |.x{1408}| 0))
(define-fun .def_40 () Int (! |.x{1356}| :next |.x{1410}|))
(define-fun .def_356 () Bool (= .def_40 0))
(define-fun .def_374 () Bool (not .def_356))
(define-fun .def_376 () Bool (and .def_374 .def_375))
(define-fun .def_377 () Bool (or .def_60 .def_376))
(define-fun .def_149 () Bool (and .def_78 .def_80))
(define-fun .def_150 () Bool (and .def_82 .def_149))
(define-fun .def_151 () Bool (and .def_84 .def_150))
(define-fun .def_233 () Bool (and .def_86 .def_151))
(define-fun .def_234 () Bool (and .def_62 .def_233))
(define-fun .def_235 () Bool (and .def_88 .def_234))
(define-fun .def_236 () Bool (and .def_64 .def_235))
(define-fun .def_352 () Bool (and .def_91 .def_236))
(define-fun .def_367 () Bool (and |.loc{9}| .def_352))
(define-fun .def_368 () Bool (and |.loc{11}| .def_367))
(define-fun .def_369 () Bool (and .def_114 .def_368))
(define-fun .def_370 () Bool (and .def_122 .def_369))
(define-fun .def_371 () Bool (and .def_124 .def_370))
(define-fun .def_372 () Bool (and .def_126 .def_371))
(define-fun .def_373 () Bool (and .def_130 .def_372))
(define-fun .def_378 () Bool (and .def_373 .def_377))
(define-fun .def_379 () Bool (and .def_136 .def_378))
(define-fun .def_380 () Bool (and .def_138 .def_379))
(define-fun .def_381 () Bool (and .def_140 .def_380))
(define-fun .def_487 () Bool (or .def_381 .def_486))
(define-fun .def_357 () Bool (or .def_60 .def_356))
(define-fun .def_353 () Bool (and |.loc{12}| .def_352))
(define-fun .def_354 () Bool (and .def_114 .def_353))
(define-fun .def_355 () Bool (and .def_118 .def_354))
(define-fun .def_358 () Bool (and .def_355 .def_357))
(define-fun .def_359 () Bool (and .def_122 .def_358))
(define-fun .def_360 () Bool (and .def_124 .def_359))
(define-fun .def_361 () Bool (and .def_126 .def_360))
(define-fun .def_362 () Bool (and .def_224 .def_361))
(define-fun .def_363 () Bool (and .def_130 .def_362))
(define-fun .def_364 () Bool (and .def_134 .def_363))
(define-fun .def_365 () Bool (and .def_136 .def_364))
(define-fun .def_366 () Bool (and .def_140 .def_365))
(define-fun .def_488 () Bool (or .def_366 .def_487))
(define-fun .def_324 () Bool (and .def_66 .def_235))
(define-fun .def_325 () Bool (and .def_91 .def_324))
(define-fun .def_340 () Bool (and .def_60 .def_325))
(define-fun .def_341 () Bool (and |.loc{12}| .def_340))
(define-fun .def_342 () Bool (and .def_114 .def_341))
(define-fun .def_343 () Bool (and .def_118 .def_342))
(define-fun .def_344 () Bool (and .def_122 .def_343))
(define-fun .def_345 () Bool (and .def_124 .def_344))
(define-fun .def_346 () Bool (and .def_126 .def_345))
(define-fun .def_347 () Bool (and .def_224 .def_346))
(define-fun .def_348 () Bool (and .def_227 .def_347))
(define-fun .def_349 () Bool (and .def_134 .def_348))
(define-fun .def_350 () Bool (and .def_136 .def_349))
(define-fun .def_351 () Bool (and .def_140 .def_350))
(define-fun .def_489 () Bool (or .def_351 .def_488))
(define-fun .def_333 () Bool (or .def_60 .def_332))
(define-fun .def_326 () Bool (and |.loc{12}| .def_325))
(define-fun .def_327 () Bool (and .def_114 .def_326))
(define-fun .def_328 () Bool (and .def_118 .def_327))
(define-fun .def_329 () Bool (and .def_122 .def_328))
(define-fun .def_330 () Bool (and .def_124 .def_329))
(define-fun .def_331 () Bool (and .def_126 .def_330))
(define-fun .def_334 () Bool (and .def_331 .def_333))
(define-fun .def_335 () Bool (and .def_224 .def_334))
(define-fun .def_336 () Bool (and .def_227 .def_335))
(define-fun .def_337 () Bool (and .def_134 .def_336))
(define-fun .def_338 () Bool (and .def_136 .def_337))
(define-fun .def_339 () Bool (and .def_140 .def_338))
(define-fun .def_490 () Bool (or .def_339 .def_489))
(define-fun .def_294 () Bool (and .def_88 .def_233))
(define-fun .def_295 () Bool (and .def_64 .def_294))
(define-fun .def_296 () Bool (and .def_91 .def_295))
(define-fun .def_311 () Bool (and .def_60 .def_296))
(define-fun .def_312 () Bool (and |.loc{9}| .def_311))
(define-fun .def_313 () Bool (and |.loc{10}| .def_312))
(define-fun .def_314 () Bool (and .def_118 .def_313))
(define-fun .def_315 () Bool (and .def_122 .def_314))
(define-fun .def_316 () Bool (and .def_124 .def_315))
(define-fun .def_317 () Bool (and .def_126 .def_316))
(define-fun .def_318 () Bool (and .def_130 .def_317))
(define-fun .def_319 () Bool (and .def_134 .def_318))
(define-fun .def_320 () Bool (and .def_132 .def_319))
(define-fun .def_321 () Bool (and .def_136 .def_320))
(define-fun .def_322 () Bool (and .def_138 .def_321))
(define-fun .def_323 () Bool (and .def_140 .def_322))
(define-fun .def_491 () Bool (or .def_323 .def_490))
(define-fun .def_34 () Int (! |.x{1353}| :next |.x{1407}|))
(define-fun .def_96 () Bool (<= 100000 .def_34))
(define-fun .def_302 () Bool (or .def_60 .def_96))
(define-fun .def_297 () Bool (and |.loc{9}| .def_296))
(define-fun .def_298 () Bool (and |.loc{10}| .def_297))
(define-fun .def_299 () Bool (and .def_118 .def_298))
(define-fun .def_300 () Bool (and .def_122 .def_299))
(define-fun .def_301 () Bool (and .def_124 .def_300))
(define-fun .def_303 () Bool (and .def_301 .def_302))
(define-fun .def_304 () Bool (and .def_126 .def_303))
(define-fun .def_305 () Bool (and .def_130 .def_304))
(define-fun .def_306 () Bool (and .def_132 .def_305))
(define-fun .def_307 () Bool (and .def_134 .def_306))
(define-fun .def_308 () Bool (and .def_136 .def_307))
(define-fun .def_309 () Bool (and .def_138 .def_308))
(define-fun .def_310 () Bool (and .def_140 .def_309))
(define-fun .def_492 () Bool (or .def_310 .def_491))
(define-fun .def_128 () Bool (= .def_34 |.x{1407}|))
(define-fun .def_493 () Bool (and .def_128 .def_492))
(define-fun .def_278 () Int (* (- 1) |.x{1407}|))
(define-fun .def_279 () Int (+ .def_34 .def_278))
(define-fun .def_280 () Bool (= .def_279 (- 1)))
(define-fun .def_281 () Bool (or .def_60 .def_280))
(define-fun .def_275 () Bool (and .def_91 .def_235))
(define-fun .def_276 () Bool (and |.loc{10}| .def_275))
(define-fun .def_282 () Bool (and .def_276 .def_281))
(define-fun .def_283 () Bool (and .def_118 .def_282))
(define-fun .def_284 () Bool (and .def_122 .def_283))
(define-fun .def_285 () Bool (and .def_124 .def_284))
(define-fun .def_286 () Bool (and .def_126 .def_285))
(define-fun .def_287 () Bool (and .def_224 .def_286))
(define-fun .def_288 () Bool (and .def_130 .def_287))
(define-fun .def_289 () Bool (and .def_227 .def_288))
(define-fun .def_290 () Bool (and .def_134 .def_289))
(define-fun .def_291 () Bool (and .def_136 .def_290))
(define-fun .def_292 () Bool (and .def_138 .def_291))
(define-fun .def_293 () Bool (and .def_140 .def_292))
(define-fun .def_494 () Bool (or .def_293 .def_493))
(define-fun .def_252 () Bool (not .def_251))
(define-fun .def_253 () Bool (or .def_60 .def_252))
(define-fun .def_254 () Bool (and .def_78 .def_253))
(define-fun .def_255 () Bool (and .def_80 .def_254))
(define-fun .def_256 () Bool (and .def_82 .def_255))
(define-fun .def_257 () Bool (and .def_84 .def_256))
(define-fun .def_258 () Bool (and .def_86 .def_257))
(define-fun .def_259 () Bool (and .def_88 .def_258))
(define-fun .def_260 () Bool (and .def_64 .def_259))
(define-fun .def_261 () Bool (and .def_66 .def_260))
(define-fun .def_262 () Bool (and .def_91 .def_261))
(define-fun .def_263 () Bool (and |.loc{11}| .def_262))
(define-fun .def_264 () Bool (and .def_114 .def_263))
(define-fun .def_265 () Bool (and .def_122 .def_264))
(define-fun .def_266 () Bool (and .def_124 .def_265))
(define-fun .def_267 () Bool (and .def_126 .def_266))
(define-fun .def_268 () Bool (and .def_224 .def_267))
(define-fun .def_269 () Bool (and .def_128 .def_268))
(define-fun .def_270 () Bool (and .def_132 .def_269))
(define-fun .def_271 () Bool (and .def_134 .def_270))
(define-fun .def_272 () Bool (and .def_136 .def_271))
(define-fun .def_273 () Bool (and .def_138 .def_272))
(define-fun .def_274 () Bool (and .def_140 .def_273))
(define-fun .def_495 () Bool (or .def_274 .def_494))
(define-fun .def_237 () Bool (and .def_66 .def_236))
(define-fun .def_238 () Bool (and .def_91 .def_237))
(define-fun .def_239 () Bool (and .def_60 .def_238))
(define-fun .def_240 () Bool (and |.loc{11}| .def_239))
(define-fun .def_241 () Bool (and .def_114 .def_240))
(define-fun .def_242 () Bool (and .def_122 .def_241))
(define-fun .def_243 () Bool (and .def_124 .def_242))
(define-fun .def_244 () Bool (and .def_126 .def_243))
(define-fun .def_245 () Bool (and .def_224 .def_244))
(define-fun .def_246 () Bool (and .def_128 .def_245))
(define-fun .def_247 () Bool (and .def_134 .def_246))
(define-fun .def_248 () Bool (and .def_136 .def_247))
(define-fun .def_249 () Bool (and .def_138 .def_248))
(define-fun .def_250 () Bool (and .def_140 .def_249))
(define-fun .def_496 () Bool (or .def_250 .def_495))
(define-fun .def_500 () Bool (and .def_496 .def_499))
(define-fun .def_93 () Bool (= .def_16 |.x{1398}|))
(define-fun .def_501 () Bool (and .def_93 .def_500))
(define-fun .def_116 () Bool (= .def_20 |.x{1400}|))
(define-fun .def_502 () Bool (and .def_116 .def_501))
(define-fun .def_120 () Bool (= .def_24 |.x{1402}|))
(define-fun .def_503 () Bool (and .def_120 .def_502))
(define-fun .def_142 () Bool (= .def_40 |.x{1410}|))
(define-fun .def_504 () Bool (and .def_142 .def_503))
(define-fun .def_218 () Bool (= |.x{1402}| 0))
(define-fun .def_217 () Bool (= |.x{1398}| 0))
(define-fun .def_219 () Bool (and .def_217 .def_218))
(define-fun .def_215 () (Array Int Int) (store .def_10 0 0))
(define-fun .def_216 () Bool (= |.x{107}| .def_215))
(define-fun .def_220 () Bool (and .def_216 .def_219))
(define-fun .def_221 () Bool (or .def_60 .def_220))
(define-fun .def_204 () (Array Int Int) (store .def_20 |.x{1411}| 400000))
(define-fun .def_205 () (Array Int Int) (store .def_204 |.x{1415}| 400000))
(define-fun .def_206 () Bool (= |.x{1400}| .def_205))
(define-fun .def_197 () Bool (<= |.x{1394}| |.x{1415}|))
(define-fun .def_198 () Bool (not .def_197))
(define-fun .def_194 () Bool (<= |.x{1394}| |.x{1411}|))
(define-fun .def_195 () Bool (not .def_194))
(define-fun .def_192 () Bool (= |.x{1415}| 0))
(define-fun .def_193 () Bool (not .def_192))
(define-fun .def_196 () Bool (and .def_193 .def_195))
(define-fun .def_199 () Bool (and .def_196 .def_198))
(define-fun .def_191 () Bool (= |.x{1417}| 0))
(define-fun .def_200 () Bool (and .def_191 .def_199))
(define-fun .def_190 () Bool (= |.x{1410}| 1))
(define-fun .def_201 () Bool (and .def_190 .def_200))
(define-fun .def_189 () Bool (= |.x{1407}| 0))
(define-fun .def_202 () Bool (and .def_189 .def_201))
(define-fun .def_207 () Bool (and .def_202 .def_206))
(define-fun .def_184 () (Array Int Int) (store |.x{107}| |.x{1411}| 1))
(define-fun .def_187 () (Array Int Int) (store .def_184 |.x{1415}| 1))
(define-fun .def_188 () Bool (= |.x{1395}| .def_187))
(define-fun .def_208 () Bool (and .def_188 .def_207))
(define-fun .def_185 () Int (select .def_184 |.x{1415}|))
(define-fun .def_186 () Bool (= .def_185 0))
(define-fun .def_209 () Bool (and .def_186 .def_208))
(define-fun .def_181 () Bool (= |.x{1411}| 0))
(define-fun .def_182 () Bool (not .def_181))
(define-fun .def_210 () Bool (and .def_182 .def_209))
(define-fun .def_180 () Bool (= |.x{1404}| 0))
(define-fun .def_211 () Bool (and .def_180 .def_210))
(define-fun .def_178 () Int (select |.x{107}| |.x{1411}|))
(define-fun .def_179 () Bool (= .def_178 0))
(define-fun .def_212 () Bool (and .def_179 .def_211))
(define-fun .def_213 () Bool (or |.x{1366}| .def_212))
(define-fun .def_174 () Bool (and .def_80 .def_91))
(define-fun .def_175 () Bool (and |.loc{10}| .def_174))
(define-fun .def_176 () Bool (and .def_118 .def_175))
(define-fun .def_214 () Bool (and .def_176 .def_213))
(define-fun .def_222 () Bool (and .def_214 .def_221))
(define-fun .def_223 () Bool (and .def_124 .def_222))
(define-fun .def_225 () Bool (and .def_223 .def_224))
(define-fun .def_226 () Bool (and .def_130 .def_225))
(define-fun .def_228 () Bool (and .def_226 .def_227))
(define-fun .def_229 () Bool (and .def_132 .def_228))
(define-fun .def_230 () Bool (and .def_136 .def_229))
(define-fun .def_231 () Bool (and .def_138 .def_230))
(define-fun .def_232 () Bool (and .def_140 .def_231))
(define-fun .def_505 () Bool (or .def_232 .def_504))
(define-fun .def_72 () Bool (= |.x{594}| |.x{593}|))
(define-fun .def_146 () Bool (not .def_72))
(define-fun .def_145 () Bool (= |.x{1410}| 0))
(define-fun .def_147 () Bool (and .def_145 .def_146))
(define-fun .def_148 () Bool (or |.x{1366}| .def_147))
(define-fun .def_152 () Bool (and .def_148 .def_151))
(define-fun .def_153 () Bool (and .def_86 .def_152))
(define-fun .def_154 () Bool (and .def_88 .def_153))
(define-fun .def_155 () Bool (and .def_64 .def_154))
(define-fun .def_156 () Bool (and .def_91 .def_155))
(define-fun .def_157 () Bool (and .def_93 .def_156))
(define-fun .def_99 () Int (* 4 .def_34))
(define-fun .def_106 () Int (+ .def_28 .def_99))
(define-fun .def_108 () Int (select .def_107 .def_106))
(define-fun .def_109 () Bool (= |.x{594}| .def_108))
(define-fun .def_102 () Int (+ .def_99 .def_54))
(define-fun .def_103 () Int (select .def_101 .def_102))
(define-fun .def_104 () Bool (= |.x{593}| .def_103))
(define-fun .def_97 () Bool (not .def_96))
(define-fun .def_105 () Bool (and .def_97 .def_104))
(define-fun .def_110 () Bool (and .def_105 .def_109))
(define-fun .def_111 () Bool (or .def_60 .def_110))
(define-fun .def_158 () Bool (and .def_111 .def_157))
(define-fun .def_159 () Bool (and |.loc{9}| .def_158))
(define-fun .def_160 () Bool (and .def_114 .def_159))
(define-fun .def_161 () Bool (and .def_116 .def_160))
(define-fun .def_162 () Bool (and .def_118 .def_161))
(define-fun .def_163 () Bool (and .def_120 .def_162))
(define-fun .def_164 () Bool (and .def_122 .def_163))
(define-fun .def_165 () Bool (and .def_124 .def_164))
(define-fun .def_166 () Bool (and .def_126 .def_165))
(define-fun .def_167 () Bool (and .def_128 .def_166))
(define-fun .def_168 () Bool (and .def_130 .def_167))
(define-fun .def_169 () Bool (and .def_132 .def_168))
(define-fun .def_170 () Bool (and .def_134 .def_169))
(define-fun .def_171 () Bool (and .def_136 .def_170))
(define-fun .def_172 () Bool (and .def_138 .def_171))
(define-fun .def_173 () Bool (and .def_140 .def_172))
(define-fun .def_506 () Bool (or .def_173 .def_505))
(define-fun .def_73 () Bool (or |.x{1366}| .def_72))
(define-fun .def_79 () Bool (and .def_73 .def_78))
(define-fun .def_81 () Bool (and .def_79 .def_80))
(define-fun .def_83 () Bool (and .def_81 .def_82))
(define-fun .def_85 () Bool (and .def_83 .def_84))
(define-fun .def_87 () Bool (and .def_85 .def_86))
(define-fun .def_89 () Bool (and .def_87 .def_88))
(define-fun .def_90 () Bool (and .def_64 .def_89))
(define-fun .def_92 () Bool (and .def_90 .def_91))
(define-fun .def_94 () Bool (and .def_92 .def_93))
(define-fun .def_112 () Bool (and .def_94 .def_111))
(define-fun .def_113 () Bool (and |.loc{9}| .def_112))
(define-fun .def_115 () Bool (and .def_113 .def_114))
(define-fun .def_117 () Bool (and .def_115 .def_116))
(define-fun .def_119 () Bool (and .def_117 .def_118))
(define-fun .def_121 () Bool (and .def_119 .def_120))
(define-fun .def_123 () Bool (and .def_121 .def_122))
(define-fun .def_125 () Bool (and .def_123 .def_124))
(define-fun .def_127 () Bool (and .def_125 .def_126))
(define-fun .def_129 () Bool (and .def_127 .def_128))
(define-fun .def_131 () Bool (and .def_129 .def_130))
(define-fun .def_133 () Bool (and .def_131 .def_132))
(define-fun .def_135 () Bool (and .def_133 .def_134))
(define-fun .def_137 () Bool (and .def_135 .def_136))
(define-fun .def_139 () Bool (and .def_137 .def_138))
(define-fun .def_141 () Bool (and .def_139 .def_140))
(define-fun .def_143 () Bool (and .def_141 .def_142))
(define-fun .def_507 () Bool (or .def_143 .def_506))
(define-fun .def_519 () Bool (! (and .def_507 .def_518) :trans true))
(define-fun .def_533 () Bool (and .def_62 .def_227))
(define-fun .def_534 () Bool (and .def_130 .def_533))
(define-fun .def_535 () Bool (and .def_68 .def_534))
(define-fun .def_536 () Bool (and .def_60 .def_535))
(define-fun .def_537 () Bool (! (not .def_536) :invar-property 0))
(assert true)
